RESULTS:
================================================================
========================================
List of elements:
N1   N2   N3   N4
[[ 1.  2.  8.  7.]
 [ 2.  3.  9.  8.]
 [ 3.  4. 10.  9.]
 [ 4.  5. 11. 10.]
 [ 5.  6. 12. 11.]
 [ 7.  8. 14. 13.]
 [ 8.  9. 15. 14.]
 [ 9. 10. 16. 15.]
 [10. 11. 17. 16.]
 [11. 12. 18. 17.]
 [13. 14. 20. 19.]
 [14. 15. 21. 20.]
 [15. 16. 22. 21.]
 [16. 17. 23. 22.]
 [17. 18. 24. 23.]
 [19. 20. 26. 25.]
 [20. 21. 27. 26.]
 [21. 22. 28. 27.]
 [22. 23. 29. 28.]
 [23. 24. 30. 29.]
 [25. 26. 32. 31.]
 [26. 27. 33. 32.]
 [27. 28. 34. 33.]
 [28. 29. 35. 34.]
 [29. 30. 36. 35.]]
========================================
Nodes coordinates:
 x    y
[[0.  0. ]
 [0.2 0. ]
 [0.4 0. ]
 [0.6 0. ]
 [0.8 0. ]
 [1.  0. ]
 [0.  0.2]
 [0.2 0.2]
 [0.4 0.2]
 [0.6 0.2]
 [0.8 0.2]
 [1.  0.2]
 [0.  0.4]
 [0.2 0.4]
 [0.4 0.4]
 [0.6 0.4]
 [0.8 0.4]
 [1.  0.4]
 [0.  0.6]
 [0.2 0.6]
 [0.4 0.6]
 [0.6 0.6]
 [0.8 0.6]
 [1.  0.6]
 [0.  0.8]
 [0.2 0.8]
 [0.4 0.8]
 [0.6 0.8]
 [0.8 0.8]
 [1.  0.8]
 [0.  1. ]
 [0.2 1. ]
 [0.4 1. ]
 [0.6 1. ]
 [0.8 1. ]
 [1.  1. ]]
========================================
[[ 1.97802198e+09  0.00000000e+00 -6.04395604e+08 ...  0.00000000e+00
   0.00000000e+00  0.00000000e+00]
 [ 0.00000000e+00  1.97802198e+09  2.74725275e+07 ...  0.00000000e+00
   0.00000000e+00  0.00000000e+00]
 [-6.04395604e+08  2.74725275e+07  1.97802198e+09 ...  0.00000000e+00
   0.00000000e+00  0.00000000e+00]
 ...
 [ 0.00000000e+00  0.00000000e+00  0.00000000e+00 ...  1.97802198e+09
  -2.74725275e+07 -6.04395604e+08]
 [ 0.00000000e+00  0.00000000e+00  0.00000000e+00 ... -2.74725275e+07
   9.89010989e+08 -3.57142857e+08]
 [ 0.00000000e+00  0.00000000e+00  0.00000000e+00 ... -6.04395604e+08
  -3.57142857e+08  9.89010989e+08]]
========================================
Displacementof the nodes:
  x             y
[[ 0.00000000e+00  0.00000000e+00]
 [ 1.48022669e-05  1.45290552e-05]
 [ 2.38673818e-05  3.32963362e-05]
 [ 2.89514132e-05  5.70398845e-05]
 [ 3.04317329e-05  8.54376508e-05]
 [ 2.54164772e-05  1.24861866e-04]
 [ 0.00000000e+00  0.00000000e+00]
 [ 3.65383137e-06  1.22342340e-05]
 [ 6.55595522e-06  3.22006104e-05]
 [ 6.81722237e-06  5.66441087e-05]
 [ 4.20072656e-06  8.59465658e-05]
 [ 1.42812904e-06  1.19133238e-04]
 [ 0.00000000e+00  0.00000000e+00]
 [-1.75282628e-06  1.27328323e-05]
 [-4.41258019e-06  3.26731657e-05]
 [-8.10648844e-06  5.74645096e-05]
 [-1.24320721e-05  8.48887188e-05]
 [-1.60565505e-05  1.13164885e-04]
 [ 0.00000000e+00  0.00000000e+00]
 [-5.95712334e-06  1.37462800e-05]
 [-1.23577664e-05  3.43354419e-05]
 [-1.88260000e-05  5.88946981e-05]
 [-2.46121977e-05  8.42044146e-05]
 [-2.91566361e-05  1.07917265e-04]
 [ 0.00000000e+00  0.00000000e+00]
 [-1.07857875e-05  1.51326229e-05]
 [-2.16613625e-05  3.68991672e-05]
 [-2.98834903e-05  6.07767763e-05]
 [-3.51199877e-05  8.42749227e-05]
 [-3.57930785e-05  1.01382997e-04]
 [ 0.00000000e+00  0.00000000e+00]
 [-2.30487439e-05  1.96300171e-05]
 [-3.80063420e-05  4.00626386e-05]
 [-4.70036246e-05  6.28044367e-05]
 [-5.02425436e-05  8.39669265e-05]
 [-5.07401171e-05  1.00806055e-04]]
========================================
Strain on the elements:
 Epsilon_xx    Epsilon_yy    Epsilon_xy
[[ 4.61402456e-05 -5.73705302e-06  3.90371343e-05]
 [ 2.99180969e-05 -8.47636745e-06  2.56844884e-05]
 [ 1.33632464e-05 -3.72875383e-06  2.18535732e-05]
 [-2.84044034e-06  2.82847952e-07  2.33375656e-05]
 [-1.94696330e-05 -1.30492826e-05  5.59788336e-05]
 [ 4.75251272e-06  1.24649574e-06  4.89010216e-05]
 [ 6.05924866e-07  2.42788398e-06  5.88287920e-05]
 [-8.58160276e-06  3.23239039e-06  5.83564900e-05]
 [-1.73551987e-05 -5.93615340e-07  6.29253917e-05]
 [-1.59926897e-05 -1.75654997e-05  6.83634022e-05]
 [-1.92748740e-05  2.53361923e-06  5.56870380e-05]
 [-2.26509925e-05  6.68930970e-06  7.09500301e-05]
 [-2.54053546e-05  7.73116186e-06  7.67147558e-05]
 [-2.52794534e-05  1.86471109e-06  7.45857212e-05]
 [-2.04222919e-05 -1.48298116e-05  6.67720139e-05]
 [-4.18572772e-05  3.46585740e-06  6.01255968e-05]
 [-4.31905450e-05  9.87517057e-06  7.05586148e-05]
 [-3.67259037e-05  1.11145086e-05  7.01894476e-05]
 [-2.75567376e-05  4.88146567e-06  6.81064565e-05]
 [-1.30438231e-05 -1.61593997e-05  5.91917297e-05]
 [-8.45863285e-05  1.12434855e-05  5.62492093e-05]
 [-6.45829326e-05  1.91521642e-05  3.39780747e-05]
 [-4.30485263e-05  1.29778297e-05  3.28857335e-05]
 [-2.11885408e-05  4.29916023e-06  3.10448649e-05]
 [-2.92666065e-06 -2.21234528e-06  9.69402053e-06]]
========================================
Stress on the elements:
 Sigma_xx    Sigma_yy    Sigma_xy
[[ 9.760e+00  1.780e+00  3.000e+00]
 [ 6.020e+00  1.100e-01  1.980e+00]
 [ 2.690e+00  6.000e-02  1.680e+00]
 [-6.100e-01 -1.300e-01  1.800e+00]
 [-5.140e+00 -4.150e+00  4.310e+00]
 [ 1.130e+00  5.900e-01  3.760e+00]
 [ 2.900e-01  5.700e-01  4.530e+00]
 [-1.670e+00  1.400e-01  4.490e+00]
 [-3.850e+00 -1.270e+00  4.840e+00]
 [-4.670e+00 -4.920e+00  5.260e+00]
 [-4.070e+00 -7.100e-01  4.280e+00]
 [-4.540e+00 -2.000e-02  5.460e+00]
 [-5.070e+00  2.000e-02  5.900e+00]
 [-5.430e+00 -1.260e+00  5.740e+00]
 [-5.470e+00 -4.610e+00  5.140e+00]
 [-8.970e+00 -2.000e+00  4.630e+00]
 [-8.840e+00 -6.800e-01  5.430e+00]
 [-7.340e+00  2.000e-02  5.400e+00]
 [-5.730e+00 -7.400e-01  5.240e+00]
 [-3.930e+00 -4.410e+00  4.550e+00]
 [-1.785e+01 -3.110e+00  4.330e+00]
 [-1.293e+01 -5.000e-02  2.610e+00]
 [-8.610e+00  1.000e-02  2.530e+00]
 [-4.370e+00 -4.500e-01  2.390e+00]
 [-7.900e-01 -6.800e-01  7.500e-01]]
========================================
================================================================
